c Reachability CNF generated by lab1_parser_jkhare.cpp
c File: verilog_src/stoplight1.v
c Unroll k = 12
c Target at time k = 0010
p cnf 748 1856
1 7 0
-1 -7 0
-2 -7 8 0
2 -8 0
7 -8 0
-5 -4 9 0
5 -9 0
4 -9 0
-9 -8 10 0
9 -10 0
8 -10 0
10 11 0
-10 -11 0
-4 -3 12 0
4 -12 0
3 -12 0
-12 -8 13 0
12 -13 0
8 -13 0
13 14 0
-13 -14 0
-14 -11 15 0
14 -15 0
11 -15 0
4 16 0
-4 -16 0
-8 -16 17 0
8 -17 0
16 -17 0
17 18 0
-17 -18 0
2 19 0
-2 -19 0
-19 -7 20 0
19 -20 0
7 -20 0
-20 -12 21 0
20 -21 0
12 -21 0
21 22 0
-21 -22 0
3 23 0
-3 -23 0
5 24 0
-5 -24 0
-24 -23 25 0
24 -25 0
23 -25 0
-25 -8 26 0
25 -26 0
8 -26 0
26 27 0
-26 -27 0
-27 -22 28 0
27 -28 0
22 -28 0
-28 -18 29 0
28 -29 0
18 -29 0
-29 -15 30 0
29 -30 0
15 -30 0
30 31 0
-30 -31 0
-19 -1 32 0
19 -32 0
1 -32 0
-32 -23 33 0
32 -33 0
23 -33 0
-4 -23 34 0
4 -34 0
23 -34 0
-34 -20 35 0
34 -35 0
20 -35 0
35 36 0
-35 -36 0
-20 -16 37 0
20 -37 0
16 -37 0
37 38 0
-37 -38 0
-38 -36 39 0
38 -39 0
36 -39 0
39 40 0
-39 -40 0
-16 -1 41 0
16 -41 0
1 -41 0
41 42 0
-41 -42 0
-42 -15 43 0
42 -43 0
15 -43 0
43 44 0
-43 -44 0
29 45 0
-29 -45 0
-16 -3 46 0
16 -46 0
3 -46 0
46 47 0
-46 -47 0
-47 -36 48 0
47 -48 0
36 -48 0
-3 -19 49 0
3 -49 0
19 -49 0
-49 -5 50 0
49 -50 0
5 -50 0
50 51 0
-50 -51 0
-16 -2 52 0
16 -52 0
2 -52 0
-52 -5 53 0
52 -53 0
5 -53 0
53 54 0
-53 -54 0
-54 -51 55 0
54 -55 0
51 -55 0
-55 -48 56 0
55 -56 0
48 -56 0
56 57 0
-56 -57 0
-47 -42 58 0
47 -58 0
42 -58 0
-58 -27 59 0
58 -59 0
27 -59 0
-54 -38 60 0
54 -60 0
38 -60 0
-60 -59 61 0
60 -61 0
59 -61 0
61 62 0
-61 -62 0
-63 44 0
63 -44 0
-64 45 0
64 -45 0
-65 57 0
65 -57 0
-66 62 0
66 -62 0
63 69 0
-63 -69 0
-64 -69 70 0
64 -70 0
69 -70 0
-67 -66 71 0
67 -71 0
66 -71 0
-71 -70 72 0
71 -72 0
70 -72 0
72 73 0
-72 -73 0
-66 -65 74 0
66 -74 0
65 -74 0
-74 -70 75 0
74 -75 0
70 -75 0
75 76 0
-75 -76 0
-76 -73 77 0
76 -77 0
73 -77 0
66 78 0
-66 -78 0
-70 -78 79 0
70 -79 0
78 -79 0
79 80 0
-79 -80 0
64 81 0
-64 -81 0
-81 -69 82 0
81 -82 0
69 -82 0
-82 -74 83 0
82 -83 0
74 -83 0
83 84 0
-83 -84 0
65 85 0
-65 -85 0
67 86 0
-67 -86 0
-86 -85 87 0
86 -87 0
85 -87 0
-87 -70 88 0
87 -88 0
70 -88 0
88 89 0
-88 -89 0
-89 -84 90 0
89 -90 0
84 -90 0
-90 -80 91 0
90 -91 0
80 -91 0
-91 -77 92 0
91 -92 0
77 -92 0
92 93 0
-92 -93 0
-81 -63 94 0
81 -94 0
63 -94 0
-94 -85 95 0
94 -95 0
85 -95 0
-66 -85 96 0
66 -96 0
85 -96 0
-96 -82 97 0
96 -97 0
82 -97 0
97 98 0
-97 -98 0
-82 -78 99 0
82 -99 0
78 -99 0
99 100 0
-99 -100 0
-100 -98 101 0
100 -101 0
98 -101 0
101 102 0
-101 -102 0
-78 -63 103 0
78 -103 0
63 -103 0
103 104 0
-103 -104 0
-104 -77 105 0
104 -105 0
77 -105 0
105 106 0
-105 -106 0
91 107 0
-91 -107 0
-78 -65 108 0
78 -108 0
65 -108 0
108 109 0
-108 -109 0
-109 -98 110 0
109 -110 0
98 -110 0
-65 -81 111 0
65 -111 0
81 -111 0
-111 -67 112 0
111 -112 0
67 -112 0
112 113 0
-112 -113 0
-78 -64 114 0
78 -114 0
64 -114 0
-114 -67 115 0
114 -115 0
67 -115 0
115 116 0
-115 -116 0
-116 -113 117 0
116 -117 0
113 -117 0
-117 -110 118 0
117 -118 0
110 -118 0
118 119 0
-118 -119 0
-109 -104 120 0
109 -120 0
104 -120 0
-120 -89 121 0
120 -121 0
89 -121 0
-116 -100 122 0
116 -122 0
100 -122 0
-122 -121 123 0
122 -123 0
121 -123 0
123 124 0
-123 -124 0
-125 106 0
125 -106 0
-126 107 0
126 -107 0
-127 119 0
127 -119 0
-128 124 0
128 -124 0
125 131 0
-125 -131 0
-126 -131 132 0
126 -132 0
131 -132 0
-129 -128 133 0
129 -133 0
128 -133 0
-133 -132 134 0
133 -134 0
132 -134 0
134 135 0
-134 -135 0
-128 -127 136 0
128 -136 0
127 -136 0
-136 -132 137 0
136 -137 0
132 -137 0
137 138 0
-137 -138 0
-138 -135 139 0
138 -139 0
135 -139 0
128 140 0
-128 -140 0
-132 -140 141 0
132 -141 0
140 -141 0
141 142 0
-141 -142 0
126 143 0
-126 -143 0
-143 -131 144 0
143 -144 0
131 -144 0
-144 -136 145 0
144 -145 0
136 -145 0
145 146 0
-145 -146 0
127 147 0
-127 -147 0
129 148 0
-129 -148 0
-148 -147 149 0
148 -149 0
147 -149 0
-149 -132 150 0
149 -150 0
132 -150 0
150 151 0
-150 -151 0
-151 -146 152 0
151 -152 0
146 -152 0
-152 -142 153 0
152 -153 0
142 -153 0
-153 -139 154 0
153 -154 0
139 -154 0
154 155 0
-154 -155 0
-143 -125 156 0
143 -156 0
125 -156 0
-156 -147 157 0
156 -157 0
147 -157 0
-128 -147 158 0
128 -158 0
147 -158 0
-158 -144 159 0
158 -159 0
144 -159 0
159 160 0
-159 -160 0
-144 -140 161 0
144 -161 0
140 -161 0
161 162 0
-161 -162 0
-162 -160 163 0
162 -163 0
160 -163 0
163 164 0
-163 -164 0
-140 -125 165 0
140 -165 0
125 -165 0
165 166 0
-165 -166 0
-166 -139 167 0
166 -167 0
139 -167 0
167 168 0
-167 -168 0
153 169 0
-153 -169 0
-140 -127 170 0
140 -170 0
127 -170 0
170 171 0
-170 -171 0
-171 -160 172 0
171 -172 0
160 -172 0
-127 -143 173 0
127 -173 0
143 -173 0
-173 -129 174 0
173 -174 0
129 -174 0
174 175 0
-174 -175 0
-140 -126 176 0
140 -176 0
126 -176 0
-176 -129 177 0
176 -177 0
129 -177 0
177 178 0
-177 -178 0
-178 -175 179 0
178 -179 0
175 -179 0
-179 -172 180 0
179 -180 0
172 -180 0
180 181 0
-180 -181 0
-171 -166 182 0
171 -182 0
166 -182 0
-182 -151 183 0
182 -183 0
151 -183 0
-178 -162 184 0
178 -184 0
162 -184 0
-184 -183 185 0
184 -185 0
183 -185 0
185 186 0
-185 -186 0
-187 168 0
187 -168 0
-188 169 0
188 -169 0
-189 181 0
189 -181 0
-190 186 0
190 -186 0
187 193 0
-187 -193 0
-188 -193 194 0
188 -194 0
193 -194 0
-191 -190 195 0
191 -195 0
190 -195 0
-195 -194 196 0
195 -196 0
194 -196 0
196 197 0
-196 -197 0
-190 -189 198 0
190 -198 0
189 -198 0
-198 -194 199 0
198 -199 0
194 -199 0
199 200 0
-199 -200 0
-200 -197 201 0
200 -201 0
197 -201 0
190 202 0
-190 -202 0
-194 -202 203 0
194 -203 0
202 -203 0
203 204 0
-203 -204 0
188 205 0
-188 -205 0
-205 -193 206 0
205 -206 0
193 -206 0
-206 -198 207 0
206 -207 0
198 -207 0
207 208 0
-207 -208 0
189 209 0
-189 -209 0
191 210 0
-191 -210 0
-210 -209 211 0
210 -211 0
209 -211 0
-211 -194 212 0
211 -212 0
194 -212 0
212 213 0
-212 -213 0
-213 -208 214 0
213 -214 0
208 -214 0
-214 -204 215 0
214 -215 0
204 -215 0
-215 -201 216 0
215 -216 0
201 -216 0
216 217 0
-216 -217 0
-205 -187 218 0
205 -218 0
187 -218 0
-218 -209 219 0
218 -219 0
209 -219 0
-190 -209 220 0
190 -220 0
209 -220 0
-220 -206 221 0
220 -221 0
206 -221 0
221 222 0
-221 -222 0
-206 -202 223 0
206 -223 0
202 -223 0
223 224 0
-223 -224 0
-224 -222 225 0
224 -225 0
222 -225 0
225 226 0
-225 -226 0
-202 -187 227 0
202 -227 0
187 -227 0
227 228 0
-227 -228 0
-228 -201 229 0
228 -229 0
201 -229 0
229 230 0
-229 -230 0
215 231 0
-215 -231 0
-202 -189 232 0
202 -232 0
189 -232 0
232 233 0
-232 -233 0
-233 -222 234 0
233 -234 0
222 -234 0
-189 -205 235 0
189 -235 0
205 -235 0
-235 -191 236 0
235 -236 0
191 -236 0
236 237 0
-236 -237 0
-202 -188 238 0
202 -238 0
188 -238 0
-238 -191 239 0
238 -239 0
191 -239 0
239 240 0
-239 -240 0
-240 -237 241 0
240 -241 0
237 -241 0
-241 -234 242 0
241 -242 0
234 -242 0
242 243 0
-242 -243 0
-233 -228 244 0
233 -244 0
228 -244 0
-244 -213 245 0
244 -245 0
213 -245 0
-240 -224 246 0
240 -246 0
224 -246 0
-246 -245 247 0
246 -247 0
245 -247 0
247 248 0
-247 -248 0
-249 230 0
249 -230 0
-250 231 0
250 -231 0
-251 243 0
251 -243 0
-252 248 0
252 -248 0
249 255 0
-249 -255 0
-250 -255 256 0
250 -256 0
255 -256 0
-253 -252 257 0
253 -257 0
252 -257 0
-257 -256 258 0
257 -258 0
256 -258 0
258 259 0
-258 -259 0
-252 -251 260 0
252 -260 0
251 -260 0
-260 -256 261 0
260 -261 0
256 -261 0
261 262 0
-261 -262 0
-262 -259 263 0
262 -263 0
259 -263 0
252 264 0
-252 -264 0
-256 -264 265 0
256 -265 0
264 -265 0
265 266 0
-265 -266 0
250 267 0
-250 -267 0
-267 -255 268 0
267 -268 0
255 -268 0
-268 -260 269 0
268 -269 0
260 -269 0
269 270 0
-269 -270 0
251 271 0
-251 -271 0
253 272 0
-253 -272 0
-272 -271 273 0
272 -273 0
271 -273 0
-273 -256 274 0
273 -274 0
256 -274 0
274 275 0
-274 -275 0
-275 -270 276 0
275 -276 0
270 -276 0
-276 -266 277 0
276 -277 0
266 -277 0
-277 -263 278 0
277 -278 0
263 -278 0
278 279 0
-278 -279 0
-267 -249 280 0
267 -280 0
249 -280 0
-280 -271 281 0
280 -281 0
271 -281 0
-252 -271 282 0
252 -282 0
271 -282 0
-282 -268 283 0
282 -283 0
268 -283 0
283 284 0
-283 -284 0
-268 -264 285 0
268 -285 0
264 -285 0
285 286 0
-285 -286 0
-286 -284 287 0
286 -287 0
284 -287 0
287 288 0
-287 -288 0
-264 -249 289 0
264 -289 0
249 -289 0
289 290 0
-289 -290 0
-290 -263 291 0
290 -291 0
263 -291 0
291 292 0
-291 -292 0
277 293 0
-277 -293 0
-264 -251 294 0
264 -294 0
251 -294 0
294 295 0
-294 -295 0
-295 -284 296 0
295 -296 0
284 -296 0
-251 -267 297 0
251 -297 0
267 -297 0
-297 -253 298 0
297 -298 0
253 -298 0
298 299 0
-298 -299 0
-264 -250 300 0
264 -300 0
250 -300 0
-300 -253 301 0
300 -301 0
253 -301 0
301 302 0
-301 -302 0
-302 -299 303 0
302 -303 0
299 -303 0
-303 -296 304 0
303 -304 0
296 -304 0
304 305 0
-304 -305 0
-295 -290 306 0
295 -306 0
290 -306 0
-306 -275 307 0
306 -307 0
275 -307 0
-302 -286 308 0
302 -308 0
286 -308 0
-308 -307 309 0
308 -309 0
307 -309 0
309 310 0
-309 -310 0
-311 292 0
311 -292 0
-312 293 0
312 -293 0
-313 305 0
313 -305 0
-314 310 0
314 -310 0
311 317 0
-311 -317 0
-312 -317 318 0
312 -318 0
317 -318 0
-315 -314 319 0
315 -319 0
314 -319 0
-319 -318 320 0
319 -320 0
318 -320 0
320 321 0
-320 -321 0
-314 -313 322 0
314 -322 0
313 -322 0
-322 -318 323 0
322 -323 0
318 -323 0
323 324 0
-323 -324 0
-324 -321 325 0
324 -325 0
321 -325 0
314 326 0
-314 -326 0
-318 -326 327 0
318 -327 0
326 -327 0
327 328 0
-327 -328 0
312 329 0
-312 -329 0
-329 -317 330 0
329 -330 0
317 -330 0
-330 -322 331 0
330 -331 0
322 -331 0
331 332 0
-331 -332 0
313 333 0
-313 -333 0
315 334 0
-315 -334 0
-334 -333 335 0
334 -335 0
333 -335 0
-335 -318 336 0
335 -336 0
318 -336 0
336 337 0
-336 -337 0
-337 -332 338 0
337 -338 0
332 -338 0
-338 -328 339 0
338 -339 0
328 -339 0
-339 -325 340 0
339 -340 0
325 -340 0
340 341 0
-340 -341 0
-329 -311 342 0
329 -342 0
311 -342 0
-342 -333 343 0
342 -343 0
333 -343 0
-314 -333 344 0
314 -344 0
333 -344 0
-344 -330 345 0
344 -345 0
330 -345 0
345 346 0
-345 -346 0
-330 -326 347 0
330 -347 0
326 -347 0
347 348 0
-347 -348 0
-348 -346 349 0
348 -349 0
346 -349 0
349 350 0
-349 -350 0
-326 -311 351 0
326 -351 0
311 -351 0
351 352 0
-351 -352 0
-352 -325 353 0
352 -353 0
325 -353 0
353 354 0
-353 -354 0
339 355 0
-339 -355 0
-326 -313 356 0
326 -356 0
313 -356 0
356 357 0
-356 -357 0
-357 -346 358 0
357 -358 0
346 -358 0
-313 -329 359 0
313 -359 0
329 -359 0
-359 -315 360 0
359 -360 0
315 -360 0
360 361 0
-360 -361 0
-326 -312 362 0
326 -362 0
312 -362 0
-362 -315 363 0
362 -363 0
315 -363 0
363 364 0
-363 -364 0
-364 -361 365 0
364 -365 0
361 -365 0
-365 -358 366 0
365 -366 0
358 -366 0
366 367 0
-366 -367 0
-357 -352 368 0
357 -368 0
352 -368 0
-368 -337 369 0
368 -369 0
337 -369 0
-364 -348 370 0
364 -370 0
348 -370 0
-370 -369 371 0
370 -371 0
369 -371 0
371 372 0
-371 -372 0
-373 354 0
373 -354 0
-374 355 0
374 -355 0
-375 367 0
375 -367 0
-376 372 0
376 -372 0
373 379 0
-373 -379 0
-374 -379 380 0
374 -380 0
379 -380 0
-377 -376 381 0
377 -381 0
376 -381 0
-381 -380 382 0
381 -382 0
380 -382 0
382 383 0
-382 -383 0
-376 -375 384 0
376 -384 0
375 -384 0
-384 -380 385 0
384 -385 0
380 -385 0
385 386 0
-385 -386 0
-386 -383 387 0
386 -387 0
383 -387 0
376 388 0
-376 -388 0
-380 -388 389 0
380 -389 0
388 -389 0
389 390 0
-389 -390 0
374 391 0
-374 -391 0
-391 -379 392 0
391 -392 0
379 -392 0
-392 -384 393 0
392 -393 0
384 -393 0
393 394 0
-393 -394 0
375 395 0
-375 -395 0
377 396 0
-377 -396 0
-396 -395 397 0
396 -397 0
395 -397 0
-397 -380 398 0
397 -398 0
380 -398 0
398 399 0
-398 -399 0
-399 -394 400 0
399 -400 0
394 -400 0
-400 -390 401 0
400 -401 0
390 -401 0
-401 -387 402 0
401 -402 0
387 -402 0
402 403 0
-402 -403 0
-391 -373 404 0
391 -404 0
373 -404 0
-404 -395 405 0
404 -405 0
395 -405 0
-376 -395 406 0
376 -406 0
395 -406 0
-406 -392 407 0
406 -407 0
392 -407 0
407 408 0
-407 -408 0
-392 -388 409 0
392 -409 0
388 -409 0
409 410 0
-409 -410 0
-410 -408 411 0
410 -411 0
408 -411 0
411 412 0
-411 -412 0
-388 -373 413 0
388 -413 0
373 -413 0
413 414 0
-413 -414 0
-414 -387 415 0
414 -415 0
387 -415 0
415 416 0
-415 -416 0
401 417 0
-401 -417 0
-388 -375 418 0
388 -418 0
375 -418 0
418 419 0
-418 -419 0
-419 -408 420 0
419 -420 0
408 -420 0
-375 -391 421 0
375 -421 0
391 -421 0
-421 -377 422 0
421 -422 0
377 -422 0
422 423 0
-422 -423 0
-388 -374 424 0
388 -424 0
374 -424 0
-424 -377 425 0
424 -425 0
377 -425 0
425 426 0
-425 -426 0
-426 -423 427 0
426 -427 0
423 -427 0
-427 -420 428 0
427 -428 0
420 -428 0
428 429 0
-428 -429 0
-419 -414 430 0
419 -430 0
414 -430 0
-430 -399 431 0
430 -431 0
399 -431 0
-426 -410 432 0
426 -432 0
410 -432 0
-432 -431 433 0
432 -433 0
431 -433 0
433 434 0
-433 -434 0
-435 416 0
435 -416 0
-436 417 0
436 -417 0
-437 429 0
437 -429 0
-438 434 0
438 -434 0
435 441 0
-435 -441 0
-436 -441 442 0
436 -442 0
441 -442 0
-439 -438 443 0
439 -443 0
438 -443 0
-443 -442 444 0
443 -444 0
442 -444 0
444 445 0
-444 -445 0
-438 -437 446 0
438 -446 0
437 -446 0
-446 -442 447 0
446 -447 0
442 -447 0
447 448 0
-447 -448 0
-448 -445 449 0
448 -449 0
445 -449 0
438 450 0
-438 -450 0
-442 -450 451 0
442 -451 0
450 -451 0
451 452 0
-451 -452 0
436 453 0
-436 -453 0
-453 -441 454 0
453 -454 0
441 -454 0
-454 -446 455 0
454 -455 0
446 -455 0
455 456 0
-455 -456 0
437 457 0
-437 -457 0
439 458 0
-439 -458 0
-458 -457 459 0
458 -459 0
457 -459 0
-459 -442 460 0
459 -460 0
442 -460 0
460 461 0
-460 -461 0
-461 -456 462 0
461 -462 0
456 -462 0
-462 -452 463 0
462 -463 0
452 -463 0
-463 -449 464 0
463 -464 0
449 -464 0
464 465 0
-464 -465 0
-453 -435 466 0
453 -466 0
435 -466 0
-466 -457 467 0
466 -467 0
457 -467 0
-438 -457 468 0
438 -468 0
457 -468 0
-468 -454 469 0
468 -469 0
454 -469 0
469 470 0
-469 -470 0
-454 -450 471 0
454 -471 0
450 -471 0
471 472 0
-471 -472 0
-472 -470 473 0
472 -473 0
470 -473 0
473 474 0
-473 -474 0
-450 -435 475 0
450 -475 0
435 -475 0
475 476 0
-475 -476 0
-476 -449 477 0
476 -477 0
449 -477 0
477 478 0
-477 -478 0
463 479 0
-463 -479 0
-450 -437 480 0
450 -480 0
437 -480 0
480 481 0
-480 -481 0
-481 -470 482 0
481 -482 0
470 -482 0
-437 -453 483 0
437 -483 0
453 -483 0
-483 -439 484 0
483 -484 0
439 -484 0
484 485 0
-484 -485 0
-450 -436 486 0
450 -486 0
436 -486 0
-486 -439 487 0
486 -487 0
439 -487 0
487 488 0
-487 -488 0
-488 -485 489 0
488 -489 0
485 -489 0
-489 -482 490 0
489 -490 0
482 -490 0
490 491 0
-490 -491 0
-481 -476 492 0
481 -492 0
476 -492 0
-492 -461 493 0
492 -493 0
461 -493 0
-488 -472 494 0
488 -494 0
472 -494 0
-494 -493 495 0
494 -495 0
493 -495 0
495 496 0
-495 -496 0
-497 478 0
497 -478 0
-498 479 0
498 -479 0
-499 491 0
499 -491 0
-500 496 0
500 -496 0
497 503 0
-497 -503 0
-498 -503 504 0
498 -504 0
503 -504 0
-501 -500 505 0
501 -505 0
500 -505 0
-505 -504 506 0
505 -506 0
504 -506 0
506 507 0
-506 -507 0
-500 -499 508 0
500 -508 0
499 -508 0
-508 -504 509 0
508 -509 0
504 -509 0
509 510 0
-509 -510 0
-510 -507 511 0
510 -511 0
507 -511 0
500 512 0
-500 -512 0
-504 -512 513 0
504 -513 0
512 -513 0
513 514 0
-513 -514 0
498 515 0
-498 -515 0
-515 -503 516 0
515 -516 0
503 -516 0
-516 -508 517 0
516 -517 0
508 -517 0
517 518 0
-517 -518 0
499 519 0
-499 -519 0
501 520 0
-501 -520 0
-520 -519 521 0
520 -521 0
519 -521 0
-521 -504 522 0
521 -522 0
504 -522 0
522 523 0
-522 -523 0
-523 -518 524 0
523 -524 0
518 -524 0
-524 -514 525 0
524 -525 0
514 -525 0
-525 -511 526 0
525 -526 0
511 -526 0
526 527 0
-526 -527 0
-515 -497 528 0
515 -528 0
497 -528 0
-528 -519 529 0
528 -529 0
519 -529 0
-500 -519 530 0
500 -530 0
519 -530 0
-530 -516 531 0
530 -531 0
516 -531 0
531 532 0
-531 -532 0
-516 -512 533 0
516 -533 0
512 -533 0
533 534 0
-533 -534 0
-534 -532 535 0
534 -535 0
532 -535 0
535 536 0
-535 -536 0
-512 -497 537 0
512 -537 0
497 -537 0
537 538 0
-537 -538 0
-538 -511 539 0
538 -539 0
511 -539 0
539 540 0
-539 -540 0
525 541 0
-525 -541 0
-512 -499 542 0
512 -542 0
499 -542 0
542 543 0
-542 -543 0
-543 -532 544 0
543 -544 0
532 -544 0
-499 -515 545 0
499 -545 0
515 -545 0
-545 -501 546 0
545 -546 0
501 -546 0
546 547 0
-546 -547 0
-512 -498 548 0
512 -548 0
498 -548 0
-548 -501 549 0
548 -549 0
501 -549 0
549 550 0
-549 -550 0
-550 -547 551 0
550 -551 0
547 -551 0
-551 -544 552 0
551 -552 0
544 -552 0
552 553 0
-552 -553 0
-543 -538 554 0
543 -554 0
538 -554 0
-554 -523 555 0
554 -555 0
523 -555 0
-550 -534 556 0
550 -556 0
534 -556 0
-556 -555 557 0
556 -557 0
555 -557 0
557 558 0
-557 -558 0
-559 540 0
559 -540 0
-560 541 0
560 -541 0
-561 553 0
561 -553 0
-562 558 0
562 -558 0
559 565 0
-559 -565 0
-560 -565 566 0
560 -566 0
565 -566 0
-563 -562 567 0
563 -567 0
562 -567 0
-567 -566 568 0
567 -568 0
566 -568 0
568 569 0
-568 -569 0
-562 -561 570 0
562 -570 0
561 -570 0
-570 -566 571 0
570 -571 0
566 -571 0
571 572 0
-571 -572 0
-572 -569 573 0
572 -573 0
569 -573 0
562 574 0
-562 -574 0
-566 -574 575 0
566 -575 0
574 -575 0
575 576 0
-575 -576 0
560 577 0
-560 -577 0
-577 -565 578 0
577 -578 0
565 -578 0
-578 -570 579 0
578 -579 0
570 -579 0
579 580 0
-579 -580 0
561 581 0
-561 -581 0
563 582 0
-563 -582 0
-582 -581 583 0
582 -583 0
581 -583 0
-583 -566 584 0
583 -584 0
566 -584 0
584 585 0
-584 -585 0
-585 -580 586 0
585 -586 0
580 -586 0
-586 -576 587 0
586 -587 0
576 -587 0
-587 -573 588 0
587 -588 0
573 -588 0
588 589 0
-588 -589 0
-577 -559 590 0
577 -590 0
559 -590 0
-590 -581 591 0
590 -591 0
581 -591 0
-562 -581 592 0
562 -592 0
581 -592 0
-592 -578 593 0
592 -593 0
578 -593 0
593 594 0
-593 -594 0
-578 -574 595 0
578 -595 0
574 -595 0
595 596 0
-595 -596 0
-596 -594 597 0
596 -597 0
594 -597 0
597 598 0
-597 -598 0
-574 -559 599 0
574 -599 0
559 -599 0
599 600 0
-599 -600 0
-600 -573 601 0
600 -601 0
573 -601 0
601 602 0
-601 -602 0
587 603 0
-587 -603 0
-574 -561 604 0
574 -604 0
561 -604 0
604 605 0
-604 -605 0
-605 -594 606 0
605 -606 0
594 -606 0
-561 -577 607 0
561 -607 0
577 -607 0
-607 -563 608 0
607 -608 0
563 -608 0
608 609 0
-608 -609 0
-574 -560 610 0
574 -610 0
560 -610 0
-610 -563 611 0
610 -611 0
563 -611 0
611 612 0
-611 -612 0
-612 -609 613 0
612 -613 0
609 -613 0
-613 -606 614 0
613 -614 0
606 -614 0
614 615 0
-614 -615 0
-605 -600 616 0
605 -616 0
600 -616 0
-616 -585 617 0
616 -617 0
585 -617 0
-612 -596 618 0
612 -618 0
596 -618 0
-618 -617 619 0
618 -619 0
617 -619 0
619 620 0
-619 -620 0
-621 602 0
621 -602 0
-622 603 0
622 -603 0
-623 615 0
623 -615 0
-624 620 0
624 -620 0
621 627 0
-621 -627 0
-622 -627 628 0
622 -628 0
627 -628 0
-625 -624 629 0
625 -629 0
624 -629 0
-629 -628 630 0
629 -630 0
628 -630 0
630 631 0
-630 -631 0
-624 -623 632 0
624 -632 0
623 -632 0
-632 -628 633 0
632 -633 0
628 -633 0
633 634 0
-633 -634 0
-634 -631 635 0
634 -635 0
631 -635 0
624 636 0
-624 -636 0
-628 -636 637 0
628 -637 0
636 -637 0
637 638 0
-637 -638 0
622 639 0
-622 -639 0
-639 -627 640 0
639 -640 0
627 -640 0
-640 -632 641 0
640 -641 0
632 -641 0
641 642 0
-641 -642 0
623 643 0
-623 -643 0
625 644 0
-625 -644 0
-644 -643 645 0
644 -645 0
643 -645 0
-645 -628 646 0
645 -646 0
628 -646 0
646 647 0
-646 -647 0
-647 -642 648 0
647 -648 0
642 -648 0
-648 -638 649 0
648 -649 0
638 -649 0
-649 -635 650 0
649 -650 0
635 -650 0
650 651 0
-650 -651 0
-639 -621 652 0
639 -652 0
621 -652 0
-652 -643 653 0
652 -653 0
643 -653 0
-624 -643 654 0
624 -654 0
643 -654 0
-654 -640 655 0
654 -655 0
640 -655 0
655 656 0
-655 -656 0
-640 -636 657 0
640 -657 0
636 -657 0
657 658 0
-657 -658 0
-658 -656 659 0
658 -659 0
656 -659 0
659 660 0
-659 -660 0
-636 -621 661 0
636 -661 0
621 -661 0
661 662 0
-661 -662 0
-662 -635 663 0
662 -663 0
635 -663 0
663 664 0
-663 -664 0
649 665 0
-649 -665 0
-636 -623 666 0
636 -666 0
623 -666 0
666 667 0
-666 -667 0
-667 -656 668 0
667 -668 0
656 -668 0
-623 -639 669 0
623 -669 0
639 -669 0
-669 -625 670 0
669 -670 0
625 -670 0
670 671 0
-670 -671 0
-636 -622 672 0
636 -672 0
622 -672 0
-672 -625 673 0
672 -673 0
625 -673 0
673 674 0
-673 -674 0
-674 -671 675 0
674 -675 0
671 -675 0
-675 -668 676 0
675 -676 0
668 -676 0
676 677 0
-676 -677 0
-667 -662 678 0
667 -678 0
662 -678 0
-678 -647 679 0
678 -679 0
647 -679 0
-674 -658 680 0
674 -680 0
658 -680 0
-680 -679 681 0
680 -681 0
679 -681 0
681 682 0
-681 -682 0
-683 664 0
683 -664 0
-684 665 0
684 -665 0
-685 677 0
685 -677 0
-686 682 0
686 -682 0
683 689 0
-683 -689 0
-684 -689 690 0
684 -690 0
689 -690 0
-687 -686 691 0
687 -691 0
686 -691 0
-691 -690 692 0
691 -692 0
690 -692 0
692 693 0
-692 -693 0
-686 -685 694 0
686 -694 0
685 -694 0
-694 -690 695 0
694 -695 0
690 -695 0
695 696 0
-695 -696 0
-696 -693 697 0
696 -697 0
693 -697 0
686 698 0
-686 -698 0
-690 -698 699 0
690 -699 0
698 -699 0
699 700 0
-699 -700 0
684 701 0
-684 -701 0
-701 -689 702 0
701 -702 0
689 -702 0
-702 -694 703 0
702 -703 0
694 -703 0
703 704 0
-703 -704 0
685 705 0
-685 -705 0
687 706 0
-687 -706 0
-706 -705 707 0
706 -707 0
705 -707 0
-707 -690 708 0
707 -708 0
690 -708 0
708 709 0
-708 -709 0
-709 -704 710 0
709 -710 0
704 -710 0
-710 -700 711 0
710 -711 0
700 -711 0
-711 -697 712 0
711 -712 0
697 -712 0
712 713 0
-712 -713 0
-701 -683 714 0
701 -714 0
683 -714 0
-714 -705 715 0
714 -715 0
705 -715 0
-686 -705 716 0
686 -716 0
705 -716 0
-716 -702 717 0
716 -717 0
702 -717 0
717 718 0
-717 -718 0
-702 -698 719 0
702 -719 0
698 -719 0
719 720 0
-719 -720 0
-720 -718 721 0
720 -721 0
718 -721 0
721 722 0
-721 -722 0
-698 -683 723 0
698 -723 0
683 -723 0
723 724 0
-723 -724 0
-724 -697 725 0
724 -725 0
697 -725 0
725 726 0
-725 -726 0
711 727 0
-711 -727 0
-698 -685 728 0
698 -728 0
685 -728 0
728 729 0
-728 -729 0
-729 -718 730 0
729 -730 0
718 -730 0
-685 -701 731 0
685 -731 0
701 -731 0
-731 -687 732 0
731 -732 0
687 -732 0
732 733 0
-732 -733 0
-698 -684 734 0
698 -734 0
684 -734 0
-734 -687 735 0
734 -735 0
687 -735 0
735 736 0
-735 -736 0
-736 -733 737 0
736 -737 0
733 -737 0
-737 -730 738 0
737 -738 0
730 -738 0
738 739 0
-738 -739 0
-729 -724 740 0
729 -740 0
724 -740 0
-740 -709 741 0
740 -741 0
709 -741 0
-736 -720 742 0
736 -742 0
720 -742 0
-742 -741 743 0
742 -743 0
741 -743 0
743 744 0
-743 -744 0
-745 726 0
745 -726 0
-746 727 0
746 -727 0
-747 739 0
747 -739 0
-748 744 0
748 -744 0
-745 0
-746 0
747 0
-748 0
-1 0
-2 0
-3 0
-4 0
